(set-logic QF_LIA)
(set-info :ran/ran2.smt2)
(set-info :smt-lib-version 2.0)
(declare-fun x1 () Int)
(declare-fun x2 () Int)
(declare-fun x3 () Int)
(declare-fun x4 () Int)
(assert (<= (+ (* 10 x1) (* (- 2) x2) (* (- 5) x3) (* (- 6) x4) ) 187))
(assert (<= (+ (* 6 x1) (* (- 1) x2) (* (- 8) x3) (* 4 x4) ) (- 196)))
(assert (<= (+ (* 1 x1) (* 5 x2) (* (- 3) x3) (* 3 x4) ) 4))
(assert (<= (+ (* (- 8) x1) (* 0 x2) (* (- 8) x3) (* 6 x4) ) (- 804)))
(assert (<= (+ (* 8 x1) (* (- 7) x2) (* 4 x3) (* (- 9) x4) ) (- 1724)))
(assert (<= (+ (* (- 4) x1) (* 0 x2) (* 3 x3) (* (- 9) x4) ) (- 2676)))
(assert (<= (+ (* (- 7) x1) (* (- 10) x2) (* 6 x3) (* (- 3) x4) ) 2449))
(assert (<= (+ (* 1 x1) (* (- 8) x2) (* 2 x3) (* 2 x4) ) 2474))
(assert (<= (+ (* 1 x1) (* 0 x2) (* 0 x3) (* 0 x4) ) 2818))
(assert (<= (+ (* (- 1) x1) (* 0 x2) (* 0 x3) (* 0 x4) ) 2818))
(assert (<= (+ (* 0 x1) (* 1 x2) (* 0 x3) (* 0 x4) ) 2818))
(assert (<= (+ (* 0 x1) (* (- 1) x2) (* 0 x3) (* 0 x4) ) 2818))
(assert (<= (+ (* 0 x1) (* 0 x2) (* 1 x3) (* 0 x4) ) 2818))
(assert (<= (+ (* 0 x1) (* 0 x2) (* (- 1) x3) (* 0 x4) ) 2818))
(assert (<= (+ (* 0 x1) (* 0 x2) (* 0 x3) (* 1 x4) ) 2818))
(assert (<= (+ (* 0 x1) (* 0 x2) (* 0 x3) (* (- 1) x4) ) 2818))
